p cnf 235 1227
1 2 3 4 5 0
6 7 8 9 10 0
11 12 13 14 15 0
16 17 18 19 20 0
21 22 23 24 25 0
26 27 28 29 30 0
31 32 33 34 35 0
36 37 38 39 40 0
41 42 43 44 45 0
46 47 48 49 50 0
51 52 53 54 55 0
56 57 58 59 60 0
61 62 63 64 65 0
66 67 68 69 70 0
71 72 73 74 75 0
76 77 78 79 80 0
81 82 83 84 85 0
86 87 88 89 90 0
91 92 93 94 95 0
96 97 98 99 100 0
101 102 103 104 105 0
106 107 108 109 110 0
111 112 113 114 115 0
116 117 118 119 120 0
121 122 123 124 125 0
126 127 128 129 130 0
131 132 133 134 135 0
136 137 138 139 140 0
141 142 143 144 145 0
146 147 148 149 150 0
151 152 153 154 155 0
156 157 158 159 160 0
161 162 163 164 165 0
166 167 168 169 170 0
171 172 173 174 175 0
176 177 178 179 180 0
181 182 183 184 185 0
186 187 188 189 190 0
191 192 193 194 195 0
196 197 198 199 200 0
201 202 203 204 205 0
206 207 208 209 210 0
211 212 213 214 215 0
216 217 218 219 220 0
221 222 223 224 225 0
226 227 228 229 230 0
231 232 233 234 235 0
-1 -6 0
-2 -7 0
-3 -8 0
-4 -9 0
-5 -10 0
-11 -6 0
-12 -7 0
-13 -8 0
-14 -9 0
-15 -10 0
-1 -16 0
-2 -17 0
-3 -18 0
-4 -19 0
-5 -20 0
-11 -21 0
-12 -22 0
-13 -23 0
-14 -24 0
-15 -25 0
-16 -21 0
-17 -22 0
-18 -23 0
-19 -24 0
-20 -25 0
-26 -6 0
-27 -7 0
-28 -8 0
-29 -9 0
-30 -10 0
-1 -31 0
-2 -32 0
-3 -33 0
-4 -34 0
-5 -35 0
-36 -6 0
-37 -7 0
-38 -8 0
-39 -9 0
-40 -10 0
-11 -31 0
-12 -32 0
-13 -33 0
-14 -34 0
-15 -35 0
-26 -16 0
-27 -17 0
-28 -18 0
-29 -19 0
-30 -20 0
-1 -41 0
-2 -42 0
-3 -43 0
-4 -44 0
-5 -45 0
-36 -21 0
-37 -22 0
-38 -23 0
-39 -24 0
-40 -25 0
-11 -46 0
-12 -47 0
-13 -48 0
-14 -49 0
-15 -50 0
-41 -21 0
-42 -22 0
-43 -23 0
-44 -24 0
-45 -25 0
-16 -46 0
-17 -47 0
-18 -48 0
-19 -49 0
-20 -50 0
-26 -51 0
-27 -52 0
-28 -53 0
-29 -54 0
-30 -55 0
-31 -51 0
-32 -52 0
-33 -53 0
-34 -54 0
-35 -55 0
-36 -51 0
-37 -52 0
-38 -53 0
-39 -54 0
-40 -55 0
-41 -51 0
-42 -52 0
-43 -53 0
-44 -54 0
-45 -55 0
-46 -51 0
-47 -52 0
-48 -53 0
-49 -54 0
-50 -55 0
-56 -6 0
-57 -7 0
-58 -8 0
-59 -9 0
-60 -10 0
-1 -61 0
-2 -62 0
-3 -63 0
-4 -64 0
-5 -65 0
-66 -6 0
-67 -7 0
-68 -8 0
-69 -9 0
-70 -10 0
-11 -61 0
-12 -62 0
-13 -63 0
-14 -64 0
-15 -65 0
-56 -16 0
-57 -17 0
-58 -18 0
-59 -19 0
-60 -20 0
-1 -71 0
-2 -72 0
-3 -73 0
-4 -74 0
-5 -75 0
-66 -21 0
-67 -22 0
-68 -23 0
-69 -24 0
-70 -25 0
-11 -76 0
-12 -77 0
-13 -78 0
-14 -79 0
-15 -80 0
-71 -21 0
-72 -22 0
-73 -23 0
-74 -24 0
-75 -25 0
-16 -76 0
-17 -77 0
-18 -78 0
-19 -79 0
-20 -80 0
-81 -6 0
-82 -7 0
-83 -8 0
-84 -9 0
-85 -10 0
-26 -61 0
-27 -62 0
-28 -63 0
-29 -64 0
-30 -65 0
-56 -31 0
-57 -32 0
-58 -33 0
-59 -34 0
-60 -35 0
-1 -86 0
-2 -87 0
-3 -88 0
-4 -89 0
-5 -90 0
-91 -6 0
-92 -7 0
-93 -8 0
-94 -9 0
-95 -10 0
-36 -61 0
-37 -62 0
-38 -63 0
-39 -64 0
-40 -65 0
-66 -31 0
-67 -32 0
-68 -33 0
-69 -34 0
-70 -35 0
-11 -86 0
-12 -87 0
-13 -88 0
-14 -89 0
-15 -90 0
-81 -16 0
-82 -17 0
-83 -18 0
-84 -19 0
-85 -20 0
-26 -71 0
-27 -72 0
-28 -73 0
-29 -74 0
-30 -75 0
-56 -41 0
-57 -42 0
-58 -43 0
-59 -44 0
-60 -45 0
-1 -96 0
-2 -97 0
-3 -98 0
-4 -99 0
-5 -100 0
-91 -21 0
-92 -22 0
-93 -23 0
-94 -24 0
-95 -25 0
-36 -76 0
-37 -77 0
-38 -78 0
-39 -79 0
-40 -80 0
-66 -46 0
-67 -47 0
-68 -48 0
-69 -49 0
-70 -50 0
-11 -101 0
-12 -102 0
-13 -103 0
-14 -104 0
-15 -105 0
-96 -21 0
-97 -22 0
-98 -23 0
-99 -24 0
-100 -25 0
-41 -76 0
-42 -77 0
-43 -78 0
-44 -79 0
-45 -80 0
-71 -46 0
-72 -47 0
-73 -48 0
-74 -49 0
-75 -50 0
-16 -101 0
-17 -102 0
-18 -103 0
-19 -104 0
-20 -105 0
-81 -51 0
-82 -52 0
-83 -53 0
-84 -54 0
-85 -55 0
-26 -106 0
-27 -107 0
-28 -108 0
-29 -109 0
-30 -110 0
-86 -51 0
-87 -52 0
-88 -53 0
-89 -54 0
-90 -55 0
-31 -106 0
-32 -107 0
-33 -108 0
-34 -109 0
-35 -110 0
-91 -51 0
-92 -52 0
-93 -53 0
-94 -54 0
-95 -55 0
-36 -106 0
-37 -107 0
-38 -108 0
-39 -109 0
-40 -110 0
-96 -51 0
-97 -52 0
-98 -53 0
-99 -54 0
-100 -55 0
-41 -106 0
-42 -107 0
-43 -108 0
-44 -109 0
-45 -110 0
-101 -51 0
-102 -52 0
-103 -53 0
-104 -54 0
-105 -55 0
-46 -106 0
-47 -107 0
-48 -108 0
-49 -109 0
-50 -110 0
-56 -111 0
-57 -112 0
-58 -113 0
-59 -114 0
-60 -115 0
-61 -111 0
-62 -112 0
-63 -113 0
-64 -114 0
-65 -115 0
-66 -111 0
-67 -112 0
-68 -113 0
-69 -114 0
-70 -115 0
-71 -111 0
-72 -112 0
-73 -113 0
-74 -114 0
-75 -115 0
-76 -111 0
-77 -112 0
-78 -113 0
-79 -114 0
-80 -115 0
-81 -111 0
-82 -112 0
-83 -113 0
-84 -114 0
-85 -115 0
-86 -111 0
-87 -112 0
-88 -113 0
-89 -114 0
-90 -115 0
-91 -111 0
-92 -112 0
-93 -113 0
-94 -114 0
-95 -115 0
-96 -111 0
-97 -112 0
-98 -113 0
-99 -114 0
-100 -115 0
-101 -111 0
-102 -112 0
-103 -113 0
-104 -114 0
-105 -115 0
-106 -111 0
-107 -112 0
-108 -113 0
-109 -114 0
-110 -115 0
-116 -6 0
-117 -7 0
-118 -8 0
-119 -9 0
-120 -10 0
-1 -121 0
-2 -122 0
-3 -123 0
-4 -124 0
-5 -125 0
-126 -6 0
-127 -7 0
-128 -8 0
-129 -9 0
-130 -10 0
-11 -121 0
-12 -122 0
-13 -123 0
-14 -124 0
-15 -125 0
-116 -16 0
-117 -17 0
-118 -18 0
-119 -19 0
-120 -20 0
-1 -131 0
-2 -132 0
-3 -133 0
-4 -134 0
-5 -135 0
-126 -21 0
-127 -22 0
-128 -23 0
-129 -24 0
-130 -25 0
-11 -136 0
-12 -137 0
-13 -138 0
-14 -139 0
-15 -140 0
-131 -21 0
-132 -22 0
-133 -23 0
-134 -24 0
-135 -25 0
-16 -136 0
-17 -137 0
-18 -138 0
-19 -139 0
-20 -140 0
-141 -6 0
-142 -7 0
-143 -8 0
-144 -9 0
-145 -10 0
-26 -121 0
-27 -122 0
-28 -123 0
-29 -124 0
-30 -125 0
-116 -31 0
-117 -32 0
-118 -33 0
-119 -34 0
-120 -35 0
-1 -146 0
-2 -147 0
-3 -148 0
-4 -149 0
-5 -150 0
-151 -6 0
-152 -7 0
-153 -8 0
-154 -9 0
-155 -10 0
-36 -121 0
-37 -122 0
-38 -123 0
-39 -124 0
-40 -125 0
-126 -31 0
-127 -32 0
-128 -33 0
-129 -34 0
-130 -35 0
-11 -146 0
-12 -147 0
-13 -148 0
-14 -149 0
-15 -150 0
-141 -16 0
-142 -17 0
-143 -18 0
-144 -19 0
-145 -20 0
-26 -131 0
-27 -132 0
-28 -133 0
-29 -134 0
-30 -135 0
-116 -41 0
-117 -42 0
-118 -43 0
-119 -44 0
-120 -45 0
-1 -156 0
-2 -157 0
-3 -158 0
-4 -159 0
-5 -160 0
-151 -21 0
-152 -22 0
-153 -23 0
-154 -24 0
-155 -25 0
-36 -136 0
-37 -137 0
-38 -138 0
-39 -139 0
-40 -140 0
-126 -46 0
-127 -47 0
-128 -48 0
-129 -49 0
-130 -50 0
-11 -161 0
-12 -162 0
-13 -163 0
-14 -164 0
-15 -165 0
-156 -21 0
-157 -22 0
-158 -23 0
-159 -24 0
-160 -25 0
-41 -136 0
-42 -137 0
-43 -138 0
-44 -139 0
-45 -140 0
-131 -46 0
-132 -47 0
-133 -48 0
-134 -49 0
-135 -50 0
-16 -161 0
-17 -162 0
-18 -163 0
-19 -164 0
-20 -165 0
-141 -51 0
-142 -52 0
-143 -53 0
-144 -54 0
-145 -55 0
-26 -166 0
-27 -167 0
-28 -168 0
-29 -169 0
-30 -170 0
-146 -51 0
-147 -52 0
-148 -53 0
-149 -54 0
-150 -55 0
-31 -166 0
-32 -167 0
-33 -168 0
-34 -169 0
-35 -170 0
-151 -51 0
-152 -52 0
-153 -53 0
-154 -54 0
-155 -55 0
-36 -166 0
-37 -167 0
-38 -168 0
-39 -169 0
-40 -170 0
-156 -51 0
-157 -52 0
-158 -53 0
-159 -54 0
-160 -55 0
-41 -166 0
-42 -167 0
-43 -168 0
-44 -169 0
-45 -170 0
-161 -51 0
-162 -52 0
-163 -53 0
-164 -54 0
-165 -55 0
-46 -166 0
-47 -167 0
-48 -168 0
-49 -169 0
-50 -170 0
-171 -6 0
-172 -7 0
-173 -8 0
-174 -9 0
-175 -10 0
-56 -121 0
-57 -122 0
-58 -123 0
-59 -124 0
-60 -125 0
-116 -61 0
-117 -62 0
-118 -63 0
-119 -64 0
-120 -65 0
-1 -176 0
-2 -177 0
-3 -178 0
-4 -179 0
-5 -180 0
-181 -6 0
-182 -7 0
-183 -8 0
-184 -9 0
-185 -10 0
-66 -121 0
-67 -122 0
-68 -123 0
-69 -124 0
-70 -125 0
-126 -61 0
-127 -62 0
-128 -63 0
-129 -64 0
-130 -65 0
-11 -176 0
-12 -177 0
-13 -178 0
-14 -179 0
-15 -180 0
-171 -16 0
-172 -17 0
-173 -18 0
-174 -19 0
-175 -20 0
-56 -131 0
-57 -132 0
-58 -133 0
-59 -134 0
-60 -135 0
-116 -71 0
-117 -72 0
-118 -73 0
-119 -74 0
-120 -75 0
-1 -186 0
-2 -187 0
-3 -188 0
-4 -189 0
-5 -190 0
-181 -21 0
-182 -22 0
-183 -23 0
-184 -24 0
-185 -25 0
-66 -136 0
-67 -137 0
-68 -138 0
-69 -139 0
-70 -140 0
-126 -76 0
-127 -77 0
-128 -78 0
-129 -79 0
-130 -80 0
-11 -191 0
-12 -192 0
-13 -193 0
-14 -194 0
-15 -195 0
-186 -21 0
-187 -22 0
-188 -23 0
-189 -24 0
-190 -25 0
-71 -136 0
-72 -137 0
-73 -138 0
-74 -139 0
-75 -140 0
-131 -76 0
-132 -77 0
-133 -78 0
-134 -79 0
-135 -80 0
-16 -191 0
-17 -192 0
-18 -193 0
-19 -194 0
-20 -195 0
-196 -6 0
-197 -7 0
-198 -8 0
-199 -9 0
-200 -10 0
-81 -121 0
-82 -122 0
-83 -123 0
-84 -124 0
-85 -125 0
-141 -61 0
-142 -62 0
-143 -63 0
-144 -64 0
-145 -65 0
-26 -176 0
-27 -177 0
-28 -178 0
-29 -179 0
-30 -180 0
-171 -31 0
-172 -32 0
-173 -33 0
-174 -34 0
-175 -35 0
-56 -146 0
-57 -147 0
-58 -148 0
-59 -149 0
-60 -150 0
-116 -86 0
-117 -87 0
-118 -88 0
-119 -89 0
-120 -90 0
-1 -201 0
-2 -202 0
-3 -203 0
-4 -204 0
-5 -205 0
-206 -6 0
-207 -7 0
-208 -8 0
-209 -9 0
-210 -10 0
-91 -121 0
-92 -122 0
-93 -123 0
-94 -124 0
-95 -125 0
-151 -61 0
-152 -62 0
-153 -63 0
-154 -64 0
-155 -65 0
-36 -176 0
-37 -177 0
-38 -178 0
-39 -179 0
-40 -180 0
-181 -31 0
-182 -32 0
-183 -33 0
-184 -34 0
-185 -35 0
-66 -146 0
-67 -147 0
-68 -148 0
-69 -149 0
-70 -150 0
-126 -86 0
-127 -87 0
-128 -88 0
-129 -89 0
-130 -90 0
-11 -201 0
-12 -202 0
-13 -203 0
-14 -204 0
-15 -205 0
-196 -16 0
-197 -17 0
-198 -18 0
-199 -19 0
-200 -20 0
-81 -131 0
-82 -132 0
-83 -133 0
-84 -134 0
-85 -135 0
-141 -71 0
-142 -72 0
-143 -73 0
-144 -74 0
-145 -75 0
-26 -186 0
-27 -187 0
-28 -188 0
-29 -189 0
-30 -190 0
-171 -41 0
-172 -42 0
-173 -43 0
-174 -44 0
-175 -45 0
-56 -156 0
-57 -157 0
-58 -158 0
-59 -159 0
-60 -160 0
-116 -96 0
-117 -97 0
-118 -98 0
-119 -99 0
-120 -100 0
-1 -211 0
-2 -212 0
-3 -213 0
-4 -214 0
-5 -215 0
-206 -21 0
-207 -22 0
-208 -23 0
-209 -24 0
-210 -25 0
-91 -136 0
-92 -137 0
-93 -138 0
-94 -139 0
-95 -140 0
-151 -76 0
-152 -77 0
-153 -78 0
-154 -79 0
-155 -80 0
-36 -191 0
-37 -192 0
-38 -193 0
-39 -194 0
-40 -195 0
-181 -46 0
-182 -47 0
-183 -48 0
-184 -49 0
-185 -50 0
-66 -161 0
-67 -162 0
-68 -163 0
-69 -164 0
-70 -165 0
-126 -101 0
-127 -102 0
-128 -103 0
-129 -104 0
-130 -105 0
-11 -216 0
-12 -217 0
-13 -218 0
-14 -219 0
-15 -220 0
-211 -21 0
-212 -22 0
-213 -23 0
-214 -24 0
-215 -25 0
-96 -136 0
-97 -137 0
-98 -138 0
-99 -139 0
-100 -140 0
-156 -76 0
-157 -77 0
-158 -78 0
-159 -79 0
-160 -80 0
-41 -191 0
-42 -192 0
-43 -193 0
-44 -194 0
-45 -195 0
-186 -46 0
-187 -47 0
-188 -48 0
-189 -49 0
-190 -50 0
-71 -161 0
-72 -162 0
-73 -163 0
-74 -164 0
-75 -165 0
-131 -101 0
-132 -102 0
-133 -103 0
-134 -104 0
-135 -105 0
-16 -216 0
-17 -217 0
-18 -218 0
-19 -219 0
-20 -220 0
-196 -51 0
-197 -52 0
-198 -53 0
-199 -54 0
-200 -55 0
-81 -166 0
-82 -167 0
-83 -168 0
-84 -169 0
-85 -170 0
-141 -106 0
-142 -107 0
-143 -108 0
-144 -109 0
-145 -110 0
-26 -221 0
-27 -222 0
-28 -223 0
-29 -224 0
-30 -225 0
-201 -51 0
-202 -52 0
-203 -53 0
-204 -54 0
-205 -55 0
-86 -166 0
-87 -167 0
-88 -168 0
-89 -169 0
-90 -170 0
-146 -106 0
-147 -107 0
-148 -108 0
-149 -109 0
-150 -110 0
-31 -221 0
-32 -222 0
-33 -223 0
-34 -224 0
-35 -225 0
-206 -51 0
-207 -52 0
-208 -53 0
-209 -54 0
-210 -55 0
-91 -166 0
-92 -167 0
-93 -168 0
-94 -169 0
-95 -170 0
-151 -106 0
-152 -107 0
-153 -108 0
-154 -109 0
-155 -110 0
-36 -221 0
-37 -222 0
-38 -223 0
-39 -224 0
-40 -225 0
-211 -51 0
-212 -52 0
-213 -53 0
-214 -54 0
-215 -55 0
-96 -166 0
-97 -167 0
-98 -168 0
-99 -169 0
-100 -170 0
-156 -106 0
-157 -107 0
-158 -108 0
-159 -109 0
-160 -110 0
-41 -221 0
-42 -222 0
-43 -223 0
-44 -224 0
-45 -225 0
-216 -51 0
-217 -52 0
-218 -53 0
-219 -54 0
-220 -55 0
-101 -166 0
-102 -167 0
-103 -168 0
-104 -169 0
-105 -170 0
-161 -106 0
-162 -107 0
-163 -108 0
-164 -109 0
-165 -110 0
-46 -221 0
-47 -222 0
-48 -223 0
-49 -224 0
-50 -225 0
-171 -111 0
-172 -112 0
-173 -113 0
-174 -114 0
-175 -115 0
-56 -226 0
-57 -227 0
-58 -228 0
-59 -229 0
-60 -230 0
-176 -111 0
-177 -112 0
-178 -113 0
-179 -114 0
-180 -115 0
-61 -226 0
-62 -227 0
-63 -228 0
-64 -229 0
-65 -230 0
-181 -111 0
-182 -112 0
-183 -113 0
-184 -114 0
-185 -115 0
-66 -226 0
-67 -227 0
-68 -228 0
-69 -229 0
-70 -230 0
-186 -111 0
-187 -112 0
-188 -113 0
-189 -114 0
-190 -115 0
-71 -226 0
-72 -227 0
-73 -228 0
-74 -229 0
-75 -230 0
-191 -111 0
-192 -112 0
-193 -113 0
-194 -114 0
-195 -115 0
-76 -226 0
-77 -227 0
-78 -228 0
-79 -229 0
-80 -230 0
-196 -111 0
-197 -112 0
-198 -113 0
-199 -114 0
-200 -115 0
-81 -226 0
-82 -227 0
-83 -228 0
-84 -229 0
-85 -230 0
-201 -111 0
-202 -112 0
-203 -113 0
-204 -114 0
-205 -115 0
-86 -226 0
-87 -227 0
-88 -228 0
-89 -229 0
-90 -230 0
-206 -111 0
-207 -112 0
-208 -113 0
-209 -114 0
-210 -115 0
-91 -226 0
-92 -227 0
-93 -228 0
-94 -229 0
-95 -230 0
-211 -111 0
-212 -112 0
-213 -113 0
-214 -114 0
-215 -115 0
-96 -226 0
-97 -227 0
-98 -228 0
-99 -229 0
-100 -230 0
-216 -111 0
-217 -112 0
-218 -113 0
-219 -114 0
-220 -115 0
-101 -226 0
-102 -227 0
-103 -228 0
-104 -229 0
-105 -230 0
-221 -111 0
-222 -112 0
-223 -113 0
-224 -114 0
-225 -115 0
-106 -226 0
-107 -227 0
-108 -228 0
-109 -229 0
-110 -230 0
-116 -231 0
-117 -232 0
-118 -233 0
-119 -234 0
-120 -235 0
-121 -231 0
-122 -232 0
-123 -233 0
-124 -234 0
-125 -235 0
-126 -231 0
-127 -232 0
-128 -233 0
-129 -234 0
-130 -235 0
-131 -231 0
-132 -232 0
-133 -233 0
-134 -234 0
-135 -235 0
-136 -231 0
-137 -232 0
-138 -233 0
-139 -234 0
-140 -235 0
-141 -231 0
-142 -232 0
-143 -233 0
-144 -234 0
-145 -235 0
-146 -231 0
-147 -232 0
-148 -233 0
-149 -234 0
-150 -235 0
-151 -231 0
-152 -232 0
-153 -233 0
-154 -234 0
-155 -235 0
-156 -231 0
-157 -232 0
-158 -233 0
-159 -234 0
-160 -235 0
-161 -231 0
-162 -232 0
-163 -233 0
-164 -234 0
-165 -235 0
-166 -231 0
-167 -232 0
-168 -233 0
-169 -234 0
-170 -235 0
-171 -231 0
-172 -232 0
-173 -233 0
-174 -234 0
-175 -235 0
-176 -231 0
-177 -232 0
-178 -233 0
-179 -234 0
-180 -235 0
-181 -231 0
-182 -232 0
-183 -233 0
-184 -234 0
-185 -235 0
-186 -231 0
-187 -232 0
-188 -233 0
-189 -234 0
-190 -235 0
-191 -231 0
-192 -232 0
-193 -233 0
-194 -234 0
-195 -235 0
-196 -231 0
-197 -232 0
-198 -233 0
-199 -234 0
-200 -235 0
-201 -231 0
-202 -232 0
-203 -233 0
-204 -234 0
-205 -235 0
-206 -231 0
-207 -232 0
-208 -233 0
-209 -234 0
-210 -235 0
-211 -231 0
-212 -232 0
-213 -233 0
-214 -234 0
-215 -235 0
-216 -231 0
-217 -232 0
-218 -233 0
-219 -234 0
-220 -235 0
-221 -231 0
-222 -232 0
-223 -233 0
-224 -234 0
-225 -235 0
-226 -231 0
-227 -232 0
-228 -233 0
-229 -234 0
-230 -235 0
